20J6M/DAT/20J6MNNL-3.dat
20 6
13.832 13.832
30.6193 30.6193
23.2075 23.2075
27.7465 27.7465
21.9052 21.9052
20.7472 20.7472
19.4962 19.4962
21.8667 21.8667
31.2247 31.2247
21.2063 21.2063
23.0748 23.0748
20.0966 20.0966
18.9391 18.9391
20.4518 20.4518
26.4107 26.4107
27.153 27.153
21.9532 21.9532
22.826 22.826
30.055 30.055
35.8965 35.8965
478.7083