20J6M/SOL/20J6MNNL-3.sol
solution status: optimal solution found
objective value:                     79.7847166666667
x#1#5                                               1 	(obj:0)
x#2#6                                               1 	(obj:0)
x#3#1                                               1 	(obj:0)
x#4#6                                               1 	(obj:0)
x#5#5                                               1 	(obj:0)
x#6#5                                               1 	(obj:0)
x#7#5                                               1 	(obj:0)
x#8#4                                               1 	(obj:0)
x#9#2                               0.314039312894386 	(obj:0)
x#9#6                               0.685960687105614 	(obj:0)
x#10#1                             0.0428685500692408 	(obj:0)
x#10#3                              0.957131449930759 	(obj:0)
x#11#4                                              1 	(obj:0)
x#12#3                                              1 	(obj:0)
x#13#3                                              1 	(obj:0)
x#14#3                                              1 	(obj:0)
x#15#1                              0.544986817211711 	(obj:0)
x#15#4                              0.455013182788289 	(obj:0)
x#16#1                              0.851676303416443 	(obj:0)
x#16#2                              0.148323696583557 	(obj:0)
x#17#1                              0.826716985830464 	(obj:0)
x#17#5                              0.173283014169536 	(obj:0)
x#18#4                                              1 	(obj:0)
x#19#2                                              1 	(obj:0)
x#20#2                                              1 	(obj:0)
z                                    79.7847166666667 	(obj:1)
